!- ENGIWORLD_OPTIMIZATION_METADATA_BEGIN
!- {
!-   "case_id": "quant-cli-openstudio-task-02-ubuntu",
!-   "design_variables": {
!-     "cooling_setpoint_c": 24.0,
!-     "daylight_control_fraction": 0.08,
!-     "economizer_fraction": 0.2,
!-     "equipment_w_per_m2": 8.4,
!-     "exterior_wall_area_m2": 132.0,
!-     "floor_area_m2": 84.0,
!-     "heating_setpoint_c": 20.0,
!-     "hvac_availability_fraction": 0.72,
!-     "infiltration_ach": 0.58,
!-     "lighting_w_per_m2": 10.5,
!-     "occupied_hours_fraction": 0.42,
!-     "orientation_deg": 0.0,
!-     "people_density_m2": 0.07,
!-     "precool_hours": 0.0,
!-     "roof_r_value_m2k_w": 4.0,
!-     "shade_ratio": 0.08,
!-     "space_count": 2,
!-     "thermal_mass_level": 0.35,
!-     "thermal_zone_count": 2,
!-     "ventilation_lps_per_person": 8.0,
!-     "wall_r_value_m2k_w": 2.6,
!-     "window_area_m2": 39.6,
!-     "window_shgc": 0.55,
!-     "window_u_value_w_m2k": 2.9,
!-     "wwr": 0.3
!-   },
!-   "model_quantities": {
!-     "exterior_wall_area_m2": 132.0,
!-     "floor_area_m2": 84.0,
!-     "space_count": 2,
!-     "thermal_zone_count": 2,
!-     "window_area_m2": 39.6,
!-     "wwr": 0.3
!-   },
!-   "role": "baseline_seed",
!-   "space_names": [
!-     "WAITING",
!-     "CONSULT"
!-   ],
!-   "thermal_zone_names": [
!-     "WAITING-ZN",
!-     "CONSULT-ZN"
!-   ]
!- }
!- ENGIWORLD_OPTIMIZATION_METADATA_END


Version,25.2;

Building,
  quant-cli-openstudio-task-02-ubuntu,
  0.0,
  Suburbs,
  0.04,
  0.40,
  FullExterior,
  25,
  6;

Site:Location,Synthetic Test USA,39.0,-104.0,-7.0,1600.0;

Timestep,4;

SimulationControl,No,No,No,Yes,Yes;

RunPeriod,Annual,1,1,,12,31,,Sunday,Yes,Yes,No,Yes,Yes,No;

GlobalGeometryRules,UpperLeftCorner,CounterClockWise,World;

Output:SQLite,SimpleAndTabular;

Output:Table:SummaryReports,AllSummary;

Output:Meter,Electricity:Facility,RunPeriod;

Output:Meter,DistrictHeating:Facility,RunPeriod;

Output:Meter,DistrictCooling:Facility,RunPeriod;

Output:Meter,InteriorLights:Electricity,RunPeriod;

Output:Meter,InteriorEquipment:Electricity,RunPeriod;

Output:Meter,Fans:Electricity,RunPeriod;

Output:Variable,*,Zone Ideal Loads Supply Air Total Heating Energy,RunPeriod;

Output:Variable,*,Zone Ideal Loads Supply Air Total Cooling Energy,RunPeriod;

ScheduleTypeLimits,Fraction,0,1,Continuous;

ScheduleTypeLimits,Temperature,-60,200,Continuous;

Schedule:Compact,ALWAYS-ON,Fraction,Through: 12/31,For: AllDays,Until: 24:00,1;

Schedule:Compact,HEATING-SP,Temperature,Through: 12/31,For: AllDays,Until: 24:00,20.0;

Schedule:Compact,COOLING-SP,Temperature,Through: 12/31,For: AllDays,Until: 24:00,24.0;

HVACTemplate:Thermostat,ENGIWORLD-THERMOSTAT,HEATING-SP,,COOLING-SP,;

Material,WALL-MAT,Rough,0.16,0.045,1100,920,0.9,0.7,0.7;

Material,ROOF-MAT,Rough,0.22,0.038,900,900,0.9,0.7,0.7;

Material,FLOOR-MAT,Rough,0.18,1.2,1600,800,0.9,0.7,0.7;

WindowMaterial:SimpleGlazingSystem,LOW-E-GLASS,2.9,0.55,0.62;

Construction,WALL-CONSTRUCTION,WALL-MAT;

Construction,ROOF-CONSTRUCTION,ROOF-MAT;

Construction,FLOOR-CONSTRUCTION,FLOOR-MAT;

Construction,WINDOW-CONSTRUCTION,LOW-E-GLASS;

Zone,
  WAITING-ZN,
  0,
  0,
  0,
  0,
  1,
  1,
  3.2,
  autocalculate,
  autocalculate;

HVACTemplate:Zone:IdealLoadsAirSystem,
  WAITING-ZN,
  ENGIWORLD-THERMOSTAT,
  ALWAYS-ON,
  ,
  ,
  ,
  ,
  ,
  ,
  ,
  ,
  ,
  ,
  ,
  ,
  ,
  ,
  ,
  ,
  ,
  ,
  ,
  ,
  ,
  ,
  ;

BuildingSurface:Detailed,
  WAITING-FLOOR,
  Floor,
  FLOOR-CONSTRUCTION,
  WAITING-ZN,
  ,
  Ground,
  ,
  NoSun,
  NoWind,
  autocalculate,
  4,
  0.0,
  0,
  0,
  5.796,
  0,
  0,
  5.796,
  7.246,
  0,
  0.0,
  7.246,
  0;

BuildingSurface:Detailed,
  WAITING-ROOF,
  Roof,
  ROOF-CONSTRUCTION,
  WAITING-ZN,
  ,
  Outdoors,
  ,
  SunExposed,
  WindExposed,
  autocalculate,
  4,
  0.0,
  7.246,
  3.2,
  5.796,
  7.246,
  3.2,
  5.796,
  0,
  3.2,
  0.0,
  0,
  3.2;

BuildingSurface:Detailed,
  WAITING-SOUTH-WALL,
  Wall,
  WALL-CONSTRUCTION,
  WAITING-ZN,
  ,
  Outdoors,
  ,
  SunExposed,
  WindExposed,
  autocalculate,
  4,
  0.0,
  0,
  3.2,
  5.796,
  0,
  3.2,
  5.796,
  0,
  0,
  0.0,
  0,
  0;

BuildingSurface:Detailed,
  WAITING-NORTH-WALL,
  Wall,
  WALL-CONSTRUCTION,
  WAITING-ZN,
  ,
  Outdoors,
  ,
  SunExposed,
  WindExposed,
  autocalculate,
  4,
  5.796,
  7.246,
  3.2,
  0.0,
  7.246,
  3.2,
  0.0,
  7.246,
  0,
  5.796,
  7.246,
  0;

BuildingSurface:Detailed,
  WAITING-WEST-WALL,
  Wall,
  WALL-CONSTRUCTION,
  WAITING-ZN,
  ,
  Outdoors,
  ,
  SunExposed,
  WindExposed,
  autocalculate,
  4,
  0.0,
  7.246,
  3.2,
  0.0,
  0,
  3.2,
  0.0,
  0,
  0,
  0.0,
  7.246,
  0;

BuildingSurface:Detailed,
  WAITING-EAST-WALL,
  Wall,
  WALL-CONSTRUCTION,
  WAITING-ZN,
  ,
  Outdoors,
  ,
  SunExposed,
  WindExposed,
  autocalculate,
  4,
  5.796,
  0,
  3.2,
  5.796,
  7.246,
  3.2,
  5.796,
  7.246,
  0,
  5.796,
  0,
  0;

FenestrationSurface:Detailed,
  WAITING-SOUTH-WINDOW,
  Window,
  WINDOW-CONSTRUCTION,
  WAITING-SOUTH-WALL,
  ,
  autocalculate,
  ,
  1.0,
  4,
  0.522,
  0,
  2.35,
  5.275,
  0,
  2.35,
  5.275,
  0,
  0.9,
  0.522,
  0,
  0.9;

Shading:Building:Detailed,
  WAITING-OVERHANG,
  ,
  4,
  0.522,
  -0.116,
  2.47,
  5.275,
  -0.116,
  2.47,
  5.275,
  0,
  2.47,
  0.522,
  0,
  2.47;

People,
  WAITING-PEOPLE,
  WAITING-ZN,
  ALWAYS-ON,
  People/Area,
  ,
  0.07,
  ,
  0.3,
  autocalculate,
  ALWAYS-ON;

Lights,
  WAITING-LIGHTS,
  WAITING-ZN,
  ALWAYS-ON,
  Watts/Area,
  ,
  10.5,
  ,
  0,
  0.42,
  0.18,
  0.0,
  General;

ElectricEquipment,
  WAITING-EQUIPMENT,
  WAITING-ZN,
  ALWAYS-ON,
  Watts/Area,
  ,
  8.4,
  ,
  0,
  0.3,
  0.2,
  General;

ZoneInfiltration:DesignFlowRate,
  WAITING-INFILTRATION,
  WAITING-ZN,
  ALWAYS-ON,
  AirChanges/Hour,
  ,
  ,
  ,
  0.58,
  0.0,
  0.0,
  0.0,
  0.0;

DesignSpecification:OutdoorAir,
  WAITING-OA,
  Sum,
  0.008,
  0.0003,
  0,
  0,
  ALWAYS-ON;

Zone,
  CONSULT-ZN,
  0,
  0,
  0,
  0,
  1,
  1,
  3.2,
  autocalculate,
  autocalculate;

HVACTemplate:Zone:IdealLoadsAirSystem,
  CONSULT-ZN,
  ENGIWORLD-THERMOSTAT,
  ALWAYS-ON,
  ,
  ,
  ,
  ,
  ,
  ,
  ,
  ,
  ,
  ,
  ,
  ,
  ,
  ,
  ,
  ,
  ,
  ,
  ,
  ,
  ,
  ,
  ;

BuildingSurface:Detailed,
  CONSULT-FLOOR,
  Floor,
  FLOOR-CONSTRUCTION,
  CONSULT-ZN,
  ,
  Ground,
  ,
  NoSun,
  NoWind,
  autocalculate,
  4,
  5.796,
  0,
  0,
  11.593,
  0,
  0,
  11.593,
  7.246,
  0,
  5.796,
  7.246,
  0;

BuildingSurface:Detailed,
  CONSULT-ROOF,
  Roof,
  ROOF-CONSTRUCTION,
  CONSULT-ZN,
  ,
  Outdoors,
  ,
  SunExposed,
  WindExposed,
  autocalculate,
  4,
  5.796,
  7.246,
  3.2,
  11.593,
  7.246,
  3.2,
  11.593,
  0,
  3.2,
  5.796,
  0,
  3.2;

BuildingSurface:Detailed,
  CONSULT-SOUTH-WALL,
  Wall,
  WALL-CONSTRUCTION,
  CONSULT-ZN,
  ,
  Outdoors,
  ,
  SunExposed,
  WindExposed,
  autocalculate,
  4,
  5.796,
  0,
  3.2,
  11.593,
  0,
  3.2,
  11.593,
  0,
  0,
  5.796,
  0,
  0;

BuildingSurface:Detailed,
  CONSULT-NORTH-WALL,
  Wall,
  WALL-CONSTRUCTION,
  CONSULT-ZN,
  ,
  Outdoors,
  ,
  SunExposed,
  WindExposed,
  autocalculate,
  4,
  11.593,
  7.246,
  3.2,
  5.796,
  7.246,
  3.2,
  5.796,
  7.246,
  0,
  11.593,
  7.246,
  0;

BuildingSurface:Detailed,
  CONSULT-WEST-WALL,
  Wall,
  WALL-CONSTRUCTION,
  CONSULT-ZN,
  ,
  Outdoors,
  ,
  SunExposed,
  WindExposed,
  autocalculate,
  4,
  5.796,
  7.246,
  3.2,
  5.796,
  0,
  3.2,
  5.796,
  0,
  0,
  5.796,
  7.246,
  0;

BuildingSurface:Detailed,
  CONSULT-EAST-WALL,
  Wall,
  WALL-CONSTRUCTION,
  CONSULT-ZN,
  ,
  Outdoors,
  ,
  SunExposed,
  WindExposed,
  autocalculate,
  4,
  11.593,
  0,
  3.2,
  11.593,
  7.246,
  3.2,
  11.593,
  7.246,
  0,
  11.593,
  0,
  0;

FenestrationSurface:Detailed,
  CONSULT-SOUTH-WINDOW,
  Window,
  WINDOW-CONSTRUCTION,
  CONSULT-SOUTH-WALL,
  ,
  autocalculate,
  ,
  1.0,
  4,
  6.318,
  0,
  2.35,
  11.071,
  0,
  2.35,
  11.071,
  0,
  0.9,
  6.318,
  0,
  0.9;

Shading:Building:Detailed,
  CONSULT-OVERHANG,
  ,
  4,
  6.318,
  -0.116,
  2.47,
  11.071,
  -0.116,
  2.47,
  11.071,
  0,
  2.47,
  6.318,
  0,
  2.47;

People,
  CONSULT-PEOPLE,
  CONSULT-ZN,
  ALWAYS-ON,
  People/Area,
  ,
  0.07,
  ,
  0.3,
  autocalculate,
  ALWAYS-ON;

Lights,
  CONSULT-LIGHTS,
  CONSULT-ZN,
  ALWAYS-ON,
  Watts/Area,
  ,
  10.5,
  ,
  0,
  0.42,
  0.18,
  0.0,
  General;

ElectricEquipment,
  CONSULT-EQUIPMENT,
  CONSULT-ZN,
  ALWAYS-ON,
  Watts/Area,
  ,
  8.4,
  ,
  0,
  0.3,
  0.2,
  General;

ZoneInfiltration:DesignFlowRate,
  CONSULT-INFILTRATION,
  CONSULT-ZN,
  ALWAYS-ON,
  AirChanges/Hour,
  ,
  ,
  ,
  0.58,
  0.0,
  0.0,
  0.0,
  0.0;

DesignSpecification:OutdoorAir,
  CONSULT-OA,
  Sum,
  0.008,
  0.0003,
  0,
  0,
  ALWAYS-ON;
