*Heading
Assembly contact template
*Part, name=Block
*Node
1, 40.0, 0.0, 40.0
2, 60.0, 0.0, 40.0
3, 60.0, 0.0, 60.0
4, 40.0, 0.0, 60.0
5, 40.0, 30.0, 40.0
6, 60.0, 30.0, 40.0
7, 60.0, 30.0, 60.0
8, 40.0, 30.0, 60.0
*Element, type=C3D8R, elset=BLK
1, 1, 2, 3, 4, 5, 6, 7, 8
*End Part
*Part, name=Plate
*Node
101, 0.0, 0.0, 0.0
102, 100.0, 0.0, 0.0
103, 100.0, 0.0, 100.0
104, 0.0, 0.0, 100.0
105, 0.0, 5.0, 0.0
106, 100.0, 5.0, 0.0
107, 100.0, 5.0, 100.0
108, 0.0, 5.0, 100.0
*Element, type=C3D8R, elset=PLT
1, 101, 102, 103, 104, 105, 106, 107, 108
*End Part
*Assembly, name=Assembly
*Instance, name=Block-1, part=Block
*End Instance
*Instance, name=Plate-1, part=Plate
*End Instance
*End Assembly
*Material, name=Steel
*Elastic
210000.0, 0.3
*Solid Section, elset=BLK, material=Steel
*Solid Section, elset=PLT, material=Steel
*Step, name=Step-1, nlgeom=YES
*Static
0.01, 1.0, 1e-5, 1.0
*Boundary
Plate-1.BOTTOM, ENCASTRE
*Dsload
Block-1.TOP, P, 10.0
*Output, field, variable=PRESELECT
*End Step