*Heading
CalculiX 2.21 modal-dynamic solid cantilever - frequency base deck
*Node, Nset=Nall
1, 0.0, 0.0, 0.0
2, 50.0, 0.0, 0.0
3, 100.0, 0.0, 0.0
4, 150.0, 0.0, 0.0
5, 200.0, 0.0, 0.0
6, 250.0, 0.0, 0.0
7, 300.0, 0.0, 0.0
8, 350.0, 0.0, 0.0
9, 400.0, 0.0, 0.0
10, 450.0, 0.0, 0.0
11, 500.0, 0.0, 0.0
101, 0.0, 10.0, 0.0
102, 50.0, 10.0, 0.0
103, 100.0, 10.0, 0.0
104, 150.0, 10.0, 0.0
105, 200.0, 10.0, 0.0
106, 250.0, 10.0, 0.0
107, 300.0, 10.0, 0.0
108, 350.0, 10.0, 0.0
109, 400.0, 10.0, 0.0
110, 450.0, 10.0, 0.0
111, 500.0, 10.0, 0.0
201, 0.0, 0.0, 10.0
202, 50.0, 0.0, 10.0
203, 100.0, 0.0, 10.0
204, 150.0, 0.0, 10.0
205, 200.0, 0.0, 10.0
206, 250.0, 0.0, 10.0
207, 300.0, 0.0, 10.0
208, 350.0, 0.0, 10.0
209, 400.0, 0.0, 10.0
210, 450.0, 0.0, 10.0
211, 500.0, 0.0, 10.0
301, 0.0, 10.0, 10.0
302, 50.0, 10.0, 10.0
303, 100.0, 10.0, 10.0
304, 150.0, 10.0, 10.0
305, 200.0, 10.0, 10.0
306, 250.0, 10.0, 10.0
307, 300.0, 10.0, 10.0
308, 350.0, 10.0, 10.0
309, 400.0, 10.0, 10.0
310, 450.0, 10.0, 10.0
311, 500.0, 10.0, 10.0
*Element, Type=C3D8I, Elset=Eall
1, 1, 2, 102, 101, 201, 202, 302, 301
2, 2, 3, 103, 102, 202, 203, 303, 302
3, 3, 4, 104, 103, 203, 204, 304, 303
4, 4, 5, 105, 104, 204, 205, 305, 304
5, 5, 6, 106, 105, 205, 206, 306, 305
6, 6, 7, 107, 106, 206, 207, 307, 306
7, 7, 8, 108, 107, 207, 208, 308, 307
8, 8, 9, 109, 108, 208, 209, 309, 308
9, 9, 10, 110, 109, 209, 210, 310, 309
10, 10, 11, 111, 110, 210, 211, 311, 310
*Nset, Nset=Fixed
1, 101, 201, 301
*Nset, Nset=Tip
11, 111, 211, 311
*Material, Name=Steel
*Elastic
210000.0, 0.3
*Density
7.85e-9
*Solid Section, Elset=Eall, Material=Steel
*Boundary
Fixed, 1, 3, 0.0
*Step
*Frequency, Storage=YES
8
*Cload
11, 2, 0.0
111, 2, 0.0
211, 2, 0.0
311, 2, 0.0
*Node File, Nset=Tip
U
*End Step
