*Heading
Thermal conduction bar for sequential coupling
*Node
1, 0.0, 0.0, 0.0
2, 100.0, 0.0, 0.0
3, 100.0, 10.0, 0.0
4, 0.0, 10.0, 0.0
5, 0.0, 0.0, 10.0
6, 100.0, 0.0, 10.0
7, 100.0, 10.0, 10.0
8, 0.0, 10.0, 10.0
*Element, type=DC3D8, elset=ALL
1, 1, 2, 3, 4, 5, 6, 7, 8
*Nset, nset=LEFT
1, 4, 5, 8
*Nset, nset=RIGHT
2, 3, 6, 7
*Material, name=Steel
*Conductivity
50.0
*Solid Section, elset=ALL, material=Steel
*Assembly, name=Assembly
*Instance, name=Bar-1, part=Bar
*End Instance
*End Assembly
*Step, name=Step-Thermal
*Heat Transfer, steady state
1.0, 1.0
*Boundary
LEFT, 11, 11, 100.0
*Boundary
RIGHT, 11, 11, 20.0
*Output, field, variable=PRESELECT
*End Step