!- ENGIWORLD_OPTIMIZATION_METADATA_BEGIN
!- {
!-   "case_id": "quant-cli-openstudio-task-04-ubuntu",
!-   "design_variables": {
!-     "cooling_setpoint_c": 24.0,
!-     "daylight_control_fraction": 0.1,
!-     "economizer_fraction": 0.2,
!-     "equipment_w_per_m2": 7.0,
!-     "exterior_wall_area_m2": 150.0,
!-     "floor_area_m2": 96.0,
!-     "heating_setpoint_c": 20.0,
!-     "hvac_availability_fraction": 0.72,
!-     "infiltration_ach": 0.56,
!-     "lighting_w_per_m2": 9.5,
!-     "occupied_hours_fraction": 0.42,
!-     "orientation_deg": 0.0,
!-     "people_density_m2": 0.105,
!-     "precool_hours": 0.0,
!-     "roof_r_value_m2k_w": 3.8,
!-     "shade_ratio": 0.06,
!-     "space_count": 2,
!-     "thermal_mass_level": 0.25,
!-     "thermal_zone_count": 2,
!-     "ventilation_lps_per_person": 8.0,
!-     "wall_r_value_m2k_w": 2.4,
!-     "window_area_m2": 48.0,
!-     "window_shgc": 0.56,
!-     "window_u_value_w_m2k": 2.9,
!-     "wwr": 0.32
!-   },
!-   "model_quantities": {
!-     "exterior_wall_area_m2": 150.0,
!-     "floor_area_m2": 96.0,
!-     "space_count": 2,
!-     "thermal_zone_count": 2,
!-     "window_area_m2": 48.0,
!-     "wwr": 0.32
!-   },
!-   "role": "baseline_seed",
!-   "space_names": [
!-     "CLASSROOM-A",
!-     "CLASSROOM-B"
!-   ],
!-   "thermal_zone_names": [
!-     "CLASSROOM-A-ZN",
!-     "CLASSROOM-B-ZN"
!-   ]
!- }
!- ENGIWORLD_OPTIMIZATION_METADATA_END


Version,25.2;

Building,
  quant-cli-openstudio-task-04-ubuntu,
  0.0,
  Suburbs,
  0.04,
  0.40,
  FullExterior,
  25,
  6;

Site:Location,Synthetic Test USA,39.0,-104.0,-7.0,1600.0;

Timestep,4;

SimulationControl,No,No,No,Yes,Yes;

RunPeriod,Annual,1,1,,12,31,,Sunday,Yes,Yes,No,Yes,Yes,No;

GlobalGeometryRules,UpperLeftCorner,CounterClockWise,World;

Output:SQLite,SimpleAndTabular;

Output:Table:SummaryReports,AllSummary;

Output:Meter,Electricity:Facility,RunPeriod;

Output:Meter,DistrictHeating:Facility,RunPeriod;

Output:Meter,DistrictCooling:Facility,RunPeriod;

Output:Meter,InteriorLights:Electricity,RunPeriod;

Output:Meter,InteriorEquipment:Electricity,RunPeriod;

Output:Meter,Fans:Electricity,RunPeriod;

Output:Variable,*,Zone Ideal Loads Supply Air Total Heating Energy,RunPeriod;

Output:Variable,*,Zone Ideal Loads Supply Air Total Cooling Energy,RunPeriod;

ScheduleTypeLimits,Fraction,0,1,Continuous;

ScheduleTypeLimits,Temperature,-60,200,Continuous;

Schedule:Compact,ALWAYS-ON,Fraction,Through: 12/31,For: AllDays,Until: 24:00,1;

Schedule:Compact,HEATING-SP,Temperature,Through: 12/31,For: AllDays,Until: 24:00,20.0;

Schedule:Compact,COOLING-SP,Temperature,Through: 12/31,For: AllDays,Until: 24:00,24.0;

HVACTemplate:Thermostat,ENGIWORLD-THERMOSTAT,HEATING-SP,,COOLING-SP,;

Material,WALL-MAT,Rough,0.16,0.045,1100,920,0.9,0.7,0.7;

Material,ROOF-MAT,Rough,0.22,0.038,900,900,0.9,0.7,0.7;

Material,FLOOR-MAT,Rough,0.18,1.2,1600,800,0.9,0.7,0.7;

WindowMaterial:SimpleGlazingSystem,LOW-E-GLASS,2.9,0.56,0.62;

Construction,WALL-CONSTRUCTION,WALL-MAT;

Construction,ROOF-CONSTRUCTION,ROOF-MAT;

Construction,FLOOR-CONSTRUCTION,FLOOR-MAT;

Construction,WINDOW-CONSTRUCTION,LOW-E-GLASS;

Zone,
  CLASSROOM-A-ZN,
  0,
  0,
  0,
  0,
  1,
  1,
  3.2,
  autocalculate,
  autocalculate;

HVACTemplate:Zone:IdealLoadsAirSystem,
  CLASSROOM-A-ZN,
  ENGIWORLD-THERMOSTAT,
  ALWAYS-ON,
  ,
  ,
  ,
  ,
  ,
  ,
  ,
  ,
  ,
  ,
  ,
  ,
  ,
  ,
  ,
  ,
  ,
  ,
  ,
  ,
  ,
  ,
  ;

BuildingSurface:Detailed,
  CLASSROOM-A-FLOOR,
  Floor,
  FLOOR-CONSTRUCTION,
  CLASSROOM-A-ZN,
  ,
  Ground,
  ,
  NoSun,
  NoWind,
  autocalculate,
  4,
  0.0,
  0,
  0,
  6.197,
  0,
  0,
  6.197,
  7.746,
  0,
  0.0,
  7.746,
  0;

BuildingSurface:Detailed,
  CLASSROOM-A-ROOF,
  Roof,
  ROOF-CONSTRUCTION,
  CLASSROOM-A-ZN,
  ,
  Outdoors,
  ,
  SunExposed,
  WindExposed,
  autocalculate,
  4,
  0.0,
  7.746,
  3.2,
  6.197,
  7.746,
  3.2,
  6.197,
  0,
  3.2,
  0.0,
  0,
  3.2;

BuildingSurface:Detailed,
  CLASSROOM-A-SOUTH-WALL,
  Wall,
  WALL-CONSTRUCTION,
  CLASSROOM-A-ZN,
  ,
  Outdoors,
  ,
  SunExposed,
  WindExposed,
  autocalculate,
  4,
  0.0,
  0,
  3.2,
  6.197,
  0,
  3.2,
  6.197,
  0,
  0,
  0.0,
  0,
  0;

BuildingSurface:Detailed,
  CLASSROOM-A-NORTH-WALL,
  Wall,
  WALL-CONSTRUCTION,
  CLASSROOM-A-ZN,
  ,
  Outdoors,
  ,
  SunExposed,
  WindExposed,
  autocalculate,
  4,
  6.197,
  7.746,
  3.2,
  0.0,
  7.746,
  3.2,
  0.0,
  7.746,
  0,
  6.197,
  7.746,
  0;

BuildingSurface:Detailed,
  CLASSROOM-A-WEST-WALL,
  Wall,
  WALL-CONSTRUCTION,
  CLASSROOM-A-ZN,
  ,
  Outdoors,
  ,
  SunExposed,
  WindExposed,
  autocalculate,
  4,
  0.0,
  7.746,
  3.2,
  0.0,
  0,
  3.2,
  0.0,
  0,
  0,
  0.0,
  7.746,
  0;

BuildingSurface:Detailed,
  CLASSROOM-A-EAST-WALL,
  Wall,
  WALL-CONSTRUCTION,
  CLASSROOM-A-ZN,
  ,
  Outdoors,
  ,
  SunExposed,
  WindExposed,
  autocalculate,
  4,
  6.197,
  0,
  3.2,
  6.197,
  7.746,
  3.2,
  6.197,
  7.746,
  0,
  6.197,
  0,
  0;

FenestrationSurface:Detailed,
  CLASSROOM-A-SOUTH-WINDOW,
  Window,
  WINDOW-CONSTRUCTION,
  CLASSROOM-A-SOUTH-WALL,
  ,
  autocalculate,
  ,
  1.0,
  4,
  0.558,
  0,
  2.35,
  5.64,
  0,
  2.35,
  5.64,
  0,
  0.9,
  0.558,
  0,
  0.9;

Shading:Building:Detailed,
  CLASSROOM-A-OVERHANG,
  ,
  4,
  0.558,
  -0.087,
  2.47,
  5.64,
  -0.087,
  2.47,
  5.64,
  0,
  2.47,
  0.558,
  0,
  2.47;

People,
  CLASSROOM-A-PEOPLE,
  CLASSROOM-A-ZN,
  ALWAYS-ON,
  People/Area,
  ,
  0.105,
  ,
  0.3,
  autocalculate,
  ALWAYS-ON;

Lights,
  CLASSROOM-A-LIGHTS,
  CLASSROOM-A-ZN,
  ALWAYS-ON,
  Watts/Area,
  ,
  9.5,
  ,
  0,
  0.42,
  0.18,
  0.0,
  General;

ElectricEquipment,
  CLASSROOM-A-EQUIPMENT,
  CLASSROOM-A-ZN,
  ALWAYS-ON,
  Watts/Area,
  ,
  7.0,
  ,
  0,
  0.3,
  0.2,
  General;

ZoneInfiltration:DesignFlowRate,
  CLASSROOM-A-INFILTRATION,
  CLASSROOM-A-ZN,
  ALWAYS-ON,
  AirChanges/Hour,
  ,
  ,
  ,
  0.56,
  0.0,
  0.0,
  0.0,
  0.0;

DesignSpecification:OutdoorAir,
  CLASSROOM-A-OA,
  Sum,
  0.008,
  0.0003,
  0,
  0,
  ALWAYS-ON;

Zone,
  CLASSROOM-B-ZN,
  0,
  0,
  0,
  0,
  1,
  1,
  3.2,
  autocalculate,
  autocalculate;

HVACTemplate:Zone:IdealLoadsAirSystem,
  CLASSROOM-B-ZN,
  ENGIWORLD-THERMOSTAT,
  ALWAYS-ON,
  ,
  ,
  ,
  ,
  ,
  ,
  ,
  ,
  ,
  ,
  ,
  ,
  ,
  ,
  ,
  ,
  ,
  ,
  ,
  ,
  ,
  ,
  ;

BuildingSurface:Detailed,
  CLASSROOM-B-FLOOR,
  Floor,
  FLOOR-CONSTRUCTION,
  CLASSROOM-B-ZN,
  ,
  Ground,
  ,
  NoSun,
  NoWind,
  autocalculate,
  4,
  6.197,
  0,
  0,
  12.394,
  0,
  0,
  12.394,
  7.746,
  0,
  6.197,
  7.746,
  0;

BuildingSurface:Detailed,
  CLASSROOM-B-ROOF,
  Roof,
  ROOF-CONSTRUCTION,
  CLASSROOM-B-ZN,
  ,
  Outdoors,
  ,
  SunExposed,
  WindExposed,
  autocalculate,
  4,
  6.197,
  7.746,
  3.2,
  12.394,
  7.746,
  3.2,
  12.394,
  0,
  3.2,
  6.197,
  0,
  3.2;

BuildingSurface:Detailed,
  CLASSROOM-B-SOUTH-WALL,
  Wall,
  WALL-CONSTRUCTION,
  CLASSROOM-B-ZN,
  ,
  Outdoors,
  ,
  SunExposed,
  WindExposed,
  autocalculate,
  4,
  6.197,
  0,
  3.2,
  12.394,
  0,
  3.2,
  12.394,
  0,
  0,
  6.197,
  0,
  0;

BuildingSurface:Detailed,
  CLASSROOM-B-NORTH-WALL,
  Wall,
  WALL-CONSTRUCTION,
  CLASSROOM-B-ZN,
  ,
  Outdoors,
  ,
  SunExposed,
  WindExposed,
  autocalculate,
  4,
  12.394,
  7.746,
  3.2,
  6.197,
  7.746,
  3.2,
  6.197,
  7.746,
  0,
  12.394,
  7.746,
  0;

BuildingSurface:Detailed,
  CLASSROOM-B-WEST-WALL,
  Wall,
  WALL-CONSTRUCTION,
  CLASSROOM-B-ZN,
  ,
  Outdoors,
  ,
  SunExposed,
  WindExposed,
  autocalculate,
  4,
  6.197,
  7.746,
  3.2,
  6.197,
  0,
  3.2,
  6.197,
  0,
  0,
  6.197,
  7.746,
  0;

BuildingSurface:Detailed,
  CLASSROOM-B-EAST-WALL,
  Wall,
  WALL-CONSTRUCTION,
  CLASSROOM-B-ZN,
  ,
  Outdoors,
  ,
  SunExposed,
  WindExposed,
  autocalculate,
  4,
  12.394,
  0,
  3.2,
  12.394,
  7.746,
  3.2,
  12.394,
  7.746,
  0,
  12.394,
  0,
  0;

FenestrationSurface:Detailed,
  CLASSROOM-B-SOUTH-WINDOW,
  Window,
  WINDOW-CONSTRUCTION,
  CLASSROOM-B-SOUTH-WALL,
  ,
  autocalculate,
  ,
  1.0,
  4,
  6.755,
  0,
  2.35,
  11.837,
  0,
  2.35,
  11.837,
  0,
  0.9,
  6.755,
  0,
  0.9;

Shading:Building:Detailed,
  CLASSROOM-B-OVERHANG,
  ,
  4,
  6.755,
  -0.087,
  2.47,
  11.837,
  -0.087,
  2.47,
  11.837,
  0,
  2.47,
  6.755,
  0,
  2.47;

People,
  CLASSROOM-B-PEOPLE,
  CLASSROOM-B-ZN,
  ALWAYS-ON,
  People/Area,
  ,
  0.105,
  ,
  0.3,
  autocalculate,
  ALWAYS-ON;

Lights,
  CLASSROOM-B-LIGHTS,
  CLASSROOM-B-ZN,
  ALWAYS-ON,
  Watts/Area,
  ,
  9.5,
  ,
  0,
  0.42,
  0.18,
  0.0,
  General;

ElectricEquipment,
  CLASSROOM-B-EQUIPMENT,
  CLASSROOM-B-ZN,
  ALWAYS-ON,
  Watts/Area,
  ,
  7.0,
  ,
  0,
  0.3,
  0.2,
  General;

ZoneInfiltration:DesignFlowRate,
  CLASSROOM-B-INFILTRATION,
  CLASSROOM-B-ZN,
  ALWAYS-ON,
  AirChanges/Hour,
  ,
  ,
  ,
  0.56,
  0.0,
  0.0,
  0.0,
  0.0;

DesignSpecification:OutdoorAir,
  CLASSROOM-B-OA,
  Sum,
  0.008,
  0.0003,
  0,
  0,
  ALWAYS-ON;
