*Heading
MPC beam-solid connection - CalculiX
*Node
1, 0.0, 0.0, 0.0
2, 50.0, 0.0, 0.0
3, 50.0, 10.0, 0.0
4, 0.0, 10.0, 0.0
5, 0.0, 0.0, 10.0
6, 50.0, 0.0, 10.0
7, 50.0, 10.0, 10.0
8, 0.0, 10.0, 10.0
101, 50.0, 5.0, 5.0
102, 100.0, 5.0, 5.0
*Element, type=C3D8R, elset=Solid_Part
1, 1, 2, 3, 4, 5, 6, 7, 8
*Element, type=B31, elset=Beam_Part
2, 101, 102
*Material, name=Steel
*Elastic
210000.0, 0.3
*Solid Section, elset=Solid_Part, material=Steel
*Beam Section, elset=Beam_Part, material=Steel, section=RECT
10.0, 10.0
*Boundary
1, 1, 3, 0.0
4, 1, 3, 0.0
5, 1, 3, 0.0
8, 1, 3, 0.0
*Step
*Static
*Node File
U
*El File
S, E
*End Step
