*Heading
Frictional contact - CalculiX
*Node
1, 40.0, 0.0, 40.0
2, 60.0, 0.0, 40.0
3, 60.0, 0.0, 60.0
4, 40.0, 0.0, 60.0
5, 40.0, 30.0, 40.0
6, 60.0, 30.0, 40.0
7, 60.0, 30.0, 60.0
8, 40.0, 30.0, 60.0
101, 0.0, 0.0, 0.0
102, 100.0, 0.0, 0.0
103, 100.0, 0.0, 100.0
104, 0.0, 0.0, 100.0
105, 0.0, 5.0, 0.0
106, 100.0, 5.0, 0.0
107, 100.0, 5.0, 100.0
108, 0.0, 5.0, 100.0
*Element, type=C3D8R, elset=Block
1, 1, 2, 3, 4, 5, 6, 7, 8
*Element, type=C3D8R, elset=Plate
2, 101, 102, 103, 104, 105, 106, 107, 108
*Material, name=Steel
*Elastic
210000.0, 0.3
*Solid Section, elset=Block, material=Steel
*Solid Section, elset=Plate, material=Steel
*Boundary
101, 1, 3, 0.0
102, 1, 3, 0.0
104, 1, 3, 0.0
105, 1, 3, 0.0
106, 1, 3, 0.0
108, 1, 3, 0.0
*Step
*Static
*Node File
U
*El File
S, E
*End Step
