*Heading
Transient thermal template
*Node
1, 0.0, 0.0, 0.0
2, 20.0, 0.0, 0.0
3, 20.0, 50.0, 0.0
4, 0.0, 50.0, 0.0
5, 0.0, 0.0, 20.0
6, 20.0, 0.0, 20.0
7, 20.0, 50.0, 20.0
8, 0.0, 50.0, 20.0
*Element, type=DC3D8, elset=ALL
1, 1, 2, 3, 4, 5, 6, 7, 8
*Material, name=Steel
*Conductivity
50.0
*Specific Heat
460000000.0
*Density
7.85e-9
*Solid Section, elset=ALL, material=Steel
*Assembly, name=Assembly
*Instance, name=Block-1, part=Block
*End Instance
*End Assembly
*Step, name=Step-1
*Heat Transfer, transient
0.1, 10.0, 1e-5, 0.1
*End Step