! ENGIWORLD_OPTIMIZATION_METADATA_BEGIN
! {
!   "case_id": "quant-cli-openstudio-task-03-ubuntu",
!   "design_variables": {
!     "cooling_setpoint_c": 23.5,
!     "daylight_control_fraction": 0.18,
!     "economizer_fraction": 0.2,
!     "equipment_w_per_m2": 6.2,
!     "exterior_wall_area_m2": 168.0,
!     "floor_area_m2": 120.0,
!     "heating_setpoint_c": 21.0,
!     "hvac_availability_fraction": 0.86,
!     "infiltration_ach": 0.5,
!     "lighting_w_per_m2": 9.2,
!     "occupied_hours_fraction": 0.52,
!     "orientation_deg": 0.0,
!     "people_density_m2": 0.04,
!     "precool_hours": 0.0,
!     "roof_r_value_m2k_w": 4.3,
!     "shade_ratio": 0.12,
!     "space_count": 3,
!     "thermal_mass_level": 0.35,
!     "thermal_zone_count": 3,
!     "ventilation_lps_per_person": 8.0,
!     "wall_r_value_m2k_w": 2.8,
!     "window_area_m2": 42.0,
!     "window_shgc": 0.48,
!     "window_u_value_w_m2k": 2.6,
!     "wwr": 0.25
!   },
!   "model_quantities": {
!     "exterior_wall_area_m2": 168.0,
!     "floor_area_m2": 120.0,
!     "space_count": 3,
!     "thermal_zone_count": 3,
!     "window_area_m2": 42.0,
!     "wwr": 0.25
!   },
!   "role": "baseline_seed",
!   "space_names": [
!     "READING",
!     "STACKS",
!     "SERVICE"
!   ],
!   "thermal_zone_names": [
!     "READING-ZN",
!     "STACKS-ZN",
!     "SERVICE-ZN"
!   ]
! }
! ENGIWORLD_OPTIMIZATION_METADATA_END


Version,
  25.2;                                   !- Version Identifier

Building,
  quant-cli-openstudio-task-03-ubuntu,    !- Name
  0.0,                                    !- North Axis {deg}
  Suburbs,                                !- Terrain
  0.04,                                   !- Loads Convergence Tolerance Value {W}
  0.40,                                   !- Temperature Convergence Tolerance Value {deltaC}
  FullExterior,                           !- Solar Distribution
  25,                                     !- Maximum Number of Warmup Days
  6;                                      !- Minimum Number of Warmup Days

Site:Location,
  Synthetic Test USA,                     !- Name
  39.0,                                   !- Latitude {deg}
  -104.0,                                 !- Longitude {deg}
  -7.0,                                   !- Time Zone {hr}
  1600.0;                                 !- Elevation {m}

Timestep,
  4;                                      !- Number of Timesteps per Hour

SimulationControl,
  No,                                     !- Do Zone Sizing Calculation
  No,                                     !- Do System Sizing Calculation
  No,                                     !- Do Plant Sizing Calculation
  Yes,                                    !- Run Simulation for Sizing Periods
  Yes,                                    !- Run Simulation for Weather File Run Periods
  ,                                       !- Do HVAC Sizing Simulation for Sizing Periods
  ;                                       !- Maximum Number of HVAC Sizing Simulation Passes

RunPeriod,
  Annual,                                 !- Name
  1,                                      !- Begin Month
  1,                                      !- Begin Day of Month
  ,                                       !- Begin Year
  12,                                     !- End Month
  31,                                     !- End Day of Month
  ,                                       !- End Year
  Sunday,                                 !- Day of Week for Start Day
  Yes,                                    !- Use Weather File Holidays and Special Days
  Yes,                                    !- Use Weather File Daylight Saving Period
  No,                                     !- Apply Weekend Holiday Rule
  Yes,                                    !- Use Weather File Rain Indicators
  Yes,                                    !- Use Weather File Snow Indicators
  No;                                     !- Treat Weather as Actual

GlobalGeometryRules,
  UpperLeftCorner,                        !- Starting Vertex Position
  CounterClockWise,                       !- Vertex Entry Direction
  World;                                  !- Coordinate System

Output:SQLite,
  SimpleAndTabular;                       !- Option Type

Output:Table:SummaryReports,
  AllSummary;                             !- Report Name 1

Output:Meter,
  Electricity:Facility,                   !- Key Name
  RunPeriod;                              !- Reporting Frequency

Output:Meter,
  DistrictHeating:Facility,               !- Key Name
  RunPeriod;                              !- Reporting Frequency

Output:Meter,
  DistrictCooling:Facility,               !- Key Name
  RunPeriod;                              !- Reporting Frequency

Output:Meter,
  InteriorLights:Electricity,             !- Key Name
  RunPeriod;                              !- Reporting Frequency

Output:Meter,
  InteriorEquipment:Electricity,          !- Key Name
  RunPeriod;                              !- Reporting Frequency

Output:Meter,
  Fans:Electricity,                       !- Key Name
  RunPeriod;                              !- Reporting Frequency

Output:Variable,
  *,                                      !- Key Value
  Zone Ideal Loads Supply Air Total Heating Energy, !- Variable Name
  RunPeriod;                              !- Reporting Frequency

Output:Variable,
  *,                                      !- Key Value
  Zone Ideal Loads Supply Air Total Cooling Energy, !- Variable Name
  RunPeriod;                              !- Reporting Frequency

ScheduleTypeLimits,
  Fraction,                               !- Name
  0,                                      !- Lower Limit Value {BasedOnField A3}
  1,                                      !- Upper Limit Value {BasedOnField A3}
  Continuous;                             !- Numeric Type

ScheduleTypeLimits,
  Temperature,                            !- Name
  -60,                                    !- Lower Limit Value {BasedOnField A3}
  200,                                    !- Upper Limit Value {BasedOnField A3}
  Continuous;                             !- Numeric Type

Schedule:Compact,
  ALWAYS-ON,                              !- Name
  Fraction,                               !- Schedule Type Limits Name
  Through: 12/31,                         !- Field 1
  For: AllDays,                           !- Field 2
  Until: 24:00,                           !- Field 3
  1;                                      !- Field 4

HVACTemplate:Thermostat,
  ENGIWORLD-THERMOSTAT,                   !- Name
  HEATING-SP,                             !- Heating Setpoint Schedule Name
  ,                                       !- Constant Heating Setpoint {C}
  COOLING-SP,                             !- Cooling Setpoint Schedule Name
  ;                                       !- Constant Cooling Setpoint {C}

Material,
  WALL-MAT,                               !- Name
  Rough,                                  !- Roughness
  0.126,                                  !- Thickness {m}
  0.045,                                  !- Conductivity {W/m-K}
  1100,                                   !- Density {kg/m3}
  920,                                    !- Specific Heat {J/kg-K}
  0.9,                                    !- Thermal Absorptance
  0.7,                                    !- Solar Absorptance
  0.7;                                    !- Visible Absorptance

Material,
  ROOF-MAT,                               !- Name
  Rough,                                  !- Roughness
  0.1634,                                 !- Thickness {m}
  0.038,                                  !- Conductivity {W/m-K}
  900,                                    !- Density {kg/m3}
  900,                                    !- Specific Heat {J/kg-K}
  0.9,                                    !- Thermal Absorptance
  0.7,                                    !- Solar Absorptance
  0.7;                                    !- Visible Absorptance

Material,
  FLOOR-MAT,                              !- Name
  Rough,                                  !- Roughness
  0.18,                                   !- Thickness {m}
  1.2,                                    !- Conductivity {W/m-K}
  1600,                                   !- Density {kg/m3}
  800,                                    !- Specific Heat {J/kg-K}
  0.9,                                    !- Thermal Absorptance
  0.7,                                    !- Solar Absorptance
  0.7;                                    !- Visible Absorptance

WindowMaterial:SimpleGlazingSystem,
  LOW-E-GLASS,                            !- Name
  2.6,                                    !- U-Factor {W/m2-K}
  0.48,                                   !- Solar Heat Gain Coefficient
  0.62;                                   !- Visible Transmittance

Construction,
  WALL-CONSTRUCTION,                      !- Name
  WALL-MAT;                               !- Layer 1

Construction,
  ROOF-CONSTRUCTION,                      !- Name
  ROOF-MAT;                               !- Layer 1

Construction,
  FLOOR-CONSTRUCTION,                     !- Name
  FLOOR-MAT;                              !- Layer 1

Construction,
  WINDOW-CONSTRUCTION,                    !- Name
  LOW-E-GLASS;                            !- Layer 1

Zone,
  READING-ZN,                             !- Name
  0,                                      !- Direction of Relative North {deg}
  0,                                      !- X Origin {m}
  0,                                      !- Y Origin {m}
  0,                                      !- Z Origin {m}
  1,                                      !- Type
  1,                                      !- Multiplier
  3.2,                                    !- Ceiling Height {m}
  autocalculate,                          !- Volume {m3}
  autocalculate;                          !- Floor Area {m2}

HVACTemplate:Zone:IdealLoadsAirSystem,
  READING-ZN,                             !- Zone Name
  ENGIWORLD-THERMOSTAT,                   !- Template Thermostat Name
  HVAC-AVAILABILITY,                      !- System Availability Schedule Name
  ,                                       !- Maximum Heating Supply Air Temperature {C}
  ,                                       !- Minimum Cooling Supply Air Temperature {C}
  ,                                       !- Maximum Heating Supply Air Humidity Ratio {kgWater/kgDryAir}
  ,                                       !- Minimum Cooling Supply Air Humidity Ratio {kgWater/kgDryAir}
  ,                                       !- Heating Limit
  ,                                       !- Maximum Heating Air Flow Rate {m3/s}
  ,                                       !- Maximum Sensible Heating Capacity {W}
  ,                                       !- Cooling Limit
  ,                                       !- Maximum Cooling Air Flow Rate {m3/s}
  ,                                       !- Maximum Total Cooling Capacity {W}
  ,                                       !- Heating Availability Schedule Name
  ,                                       !- Cooling Availability Schedule Name
  ,                                       !- Dehumidification Control Type
  ,                                       !- Cooling Sensible Heat Ratio {dimensionless}
  ,                                       !- Dehumidification Setpoint {percent}
  ,                                       !- Humidification Control Type
  ,                                       !- Humidification Setpoint {percent}
  ,                                       !- Outdoor Air Method
  ,                                       !- Outdoor Air Flow Rate per Person {m3/s}
  ,                                       !- Outdoor Air Flow Rate per Zone Floor Area {m3/s-m2}
  ,                                       !- Outdoor Air Flow Rate per Zone {m3/s}
  ,                                       !- Design Specification Outdoor Air Object Name
  ;                                       !- Demand Controlled Ventilation Type

BuildingSurface:Detailed,
  READING-FLOOR,                          !- Name
  Floor,                                  !- Surface Type
  FLOOR-CONSTRUCTION,                     !- Construction Name
  READING-ZN,                             !- Zone Name
  READING,                                !- Space Name
  Ground,                                 !- Outside Boundary Condition
  ,                                       !- Outside Boundary Condition Object
  NoSun,                                  !- Sun Exposure
  NoWind,                                 !- Wind Exposure
  autocalculate,                          !- View Factor to Ground
  4,                                      !- Number of Vertices
  0.0, 0, 0,                              !- X,Y,Z Vertex 1 {m}
  4.619, 0, 0,                            !- X,Y,Z Vertex 2 {m}
  4.619, 8.661, 0,                        !- X,Y,Z Vertex 3 {m}
  0.0, 8.661, 0;                          !- X,Y,Z Vertex 4 {m}

BuildingSurface:Detailed,
  READING-ROOF,                           !- Name
  Roof,                                   !- Surface Type
  ROOF-CONSTRUCTION,                      !- Construction Name
  READING-ZN,                             !- Zone Name
  READING,                                !- Space Name
  Outdoors,                               !- Outside Boundary Condition
  ,                                       !- Outside Boundary Condition Object
  SunExposed,                             !- Sun Exposure
  WindExposed,                            !- Wind Exposure
  autocalculate,                          !- View Factor to Ground
  4,                                      !- Number of Vertices
  0.0, 8.661, 3.2,                        !- X,Y,Z Vertex 1 {m}
  4.619, 8.661, 3.2,                      !- X,Y,Z Vertex 2 {m}
  4.619, 0, 3.2,                          !- X,Y,Z Vertex 3 {m}
  0.0, 0, 3.2;                            !- X,Y,Z Vertex 4 {m}

BuildingSurface:Detailed,
  READING-SOUTH-WALL,                     !- Name
  Wall,                                   !- Surface Type
  WALL-CONSTRUCTION,                      !- Construction Name
  READING-ZN,                             !- Zone Name
  READING,                                !- Space Name
  Outdoors,                               !- Outside Boundary Condition
  ,                                       !- Outside Boundary Condition Object
  SunExposed,                             !- Sun Exposure
  WindExposed,                            !- Wind Exposure
  autocalculate,                          !- View Factor to Ground
  4,                                      !- Number of Vertices
  0.0, 0, 3.2,                            !- X,Y,Z Vertex 1 {m}
  4.619, 0, 3.2,                          !- X,Y,Z Vertex 2 {m}
  4.619, 0, 0,                            !- X,Y,Z Vertex 3 {m}
  0.0, 0, 0;                              !- X,Y,Z Vertex 4 {m}

BuildingSurface:Detailed,
  READING-NORTH-WALL,                     !- Name
  Wall,                                   !- Surface Type
  WALL-CONSTRUCTION,                      !- Construction Name
  READING-ZN,                             !- Zone Name
  READING,                                !- Space Name
  Outdoors,                               !- Outside Boundary Condition
  ,                                       !- Outside Boundary Condition Object
  SunExposed,                             !- Sun Exposure
  WindExposed,                            !- Wind Exposure
  autocalculate,                          !- View Factor to Ground
  4,                                      !- Number of Vertices
  4.619, 8.661, 3.2,                      !- X,Y,Z Vertex 1 {m}
  0.0, 8.661, 3.2,                        !- X,Y,Z Vertex 2 {m}
  0.0, 8.661, 0,                          !- X,Y,Z Vertex 3 {m}
  4.619, 8.661, 0;                        !- X,Y,Z Vertex 4 {m}

BuildingSurface:Detailed,
  READING-WEST-WALL,                      !- Name
  Wall,                                   !- Surface Type
  WALL-CONSTRUCTION,                      !- Construction Name
  READING-ZN,                             !- Zone Name
  READING,                                !- Space Name
  Outdoors,                               !- Outside Boundary Condition
  ,                                       !- Outside Boundary Condition Object
  SunExposed,                             !- Sun Exposure
  WindExposed,                            !- Wind Exposure
  autocalculate,                          !- View Factor to Ground
  4,                                      !- Number of Vertices
  0.0, 8.661, 3.2,                        !- X,Y,Z Vertex 1 {m}
  0.0, 0, 3.2,                            !- X,Y,Z Vertex 2 {m}
  0.0, 0, 0,                              !- X,Y,Z Vertex 3 {m}
  0.0, 8.661, 0;                          !- X,Y,Z Vertex 4 {m}

BuildingSurface:Detailed,
  READING-EAST-WALL,                      !- Name
  Wall,                                   !- Surface Type
  WALL-CONSTRUCTION,                      !- Construction Name
  READING-ZN,                             !- Zone Name
  READING,                                !- Space Name
  Outdoors,                               !- Outside Boundary Condition
  ,                                       !- Outside Boundary Condition Object
  SunExposed,                             !- Sun Exposure
  WindExposed,                            !- Wind Exposure
  autocalculate,                          !- View Factor to Ground
  4,                                      !- Number of Vertices
  4.619, 0, 3.2,                          !- X,Y,Z Vertex 1 {m}
  4.619, 8.661, 3.2,                      !- X,Y,Z Vertex 2 {m}
  4.619, 8.661, 0,                        !- X,Y,Z Vertex 3 {m}
  4.619, 0, 0;                            !- X,Y,Z Vertex 4 {m}

FenestrationSurface:Detailed,
  READING-SOUTH-WINDOW,                   !- Name
  Window,                                 !- Surface Type
  WINDOW-CONSTRUCTION,                    !- Construction Name
  READING-SOUTH-WALL,                     !- Building Surface Name
  ,                                       !- Outside Boundary Condition Object
  autocalculate,                          !- View Factor to Ground
  ,                                       !- Frame and Divider Name
  1.0,                                    !- Multiplier
  4,                                      !- Number of Vertices
  0.4, 0, 2.51647028017806,               !- X,Y,Z Vertex 1 {m}
  4.219, 0, 2.51647028017806,             !- X,Y,Z Vertex 2 {m}
  4.219, 0, 0.683529719821943,            !- X,Y,Z Vertex 3 {m}
  0.4, 0, 0.683529719821943;              !- X,Y,Z Vertex 4 {m}

Shading:Building:Detailed,
  READING-OVERHANG,                       !- Name
  ,                                       !- Transmittance Schedule Name
  4,                                      !- Number of Vertices
  0.4, -0.219952867242734, 2.63647028017806, !- X,Y,Z Vertex 1 {m}
  4.219, -0.219952867242734, 2.63647028017806, !- X,Y,Z Vertex 2 {m}
  4.219, 0, 2.63647028017806,             !- X,Y,Z Vertex 3 {m}
  0.4, 0, 2.63647028017806;               !- X,Y,Z Vertex 4 {m}

People,
  READING-PEOPLE,                         !- Name
  READING,                                !- Zone or ZoneList or Space or SpaceList Name
  OCCUPANCY-SCHEDULE,                     !- Number of People Schedule Name
  People/Area,                            !- Number of People Calculation Method
  ,                                       !- Number of People
  0.04,                                   !- People per Floor Area {person/m2}
  ,                                       !- Floor Area per Person {m2/person}
  0.3,                                    !- Fraction Radiant
  autocalculate,                          !- Sensible Heat Fraction
  ACTIVITY-SCHEDULE;                      !- Activity Level Schedule Name

Lights,
  READING-LIGHTS,                         !- Name
  READING,                                !- Zone or ZoneList or Space or SpaceList Name
  OCCUPANCY-SCHEDULE,                     !- Schedule Name
  Watts/Area,                             !- Design Level Calculation Method
  ,                                       !- Lighting Level {W}
  9.2,                                    !- Watts per Floor Area {W/m2}
  ,                                       !- Watts per Person {W/person}
  0,                                      !- Return Air Fraction
  0.42,                                   !- Fraction Radiant
  0.18,                                   !- Fraction Visible
  1,                                      !- Fraction Replaceable
  General;                                !- End-Use Subcategory

ElectricEquipment,
  READING-EQUIPMENT,                      !- Name
  READING,                                !- Zone or ZoneList or Space or SpaceList Name
  OCCUPANCY-SCHEDULE,                     !- Schedule Name
  Watts/Area,                             !- Design Level Calculation Method
  ,                                       !- Design Level {W}
  6.2,                                    !- Watts per Floor Area {W/m2}
  ,                                       !- Watts per Person {W/person}
  0,                                      !- Fraction Latent
  0.3,                                    !- Fraction Radiant
  0.2,                                    !- Fraction Lost
  General;                                !- End-Use Subcategory

ZoneInfiltration:DesignFlowRate,
  READING-INFILTRATION,                   !- Name
  READING,                                !- Zone or ZoneList or Space or SpaceList Name
  ALWAYS-ON,                              !- Schedule Name
  AirChanges/Hour,                        !- Design Flow Rate Calculation Method
  ,                                       !- Design Flow Rate {m3/s}
  ,                                       !- Flow Rate per Floor Area {m3/s-m2}
  ,                                       !- Flow Rate per Exterior Surface Area {m3/s-m2}
  0.5,                                    !- Air Changes per Hour {1/hr}
  1,                                      !- Constant Term Coefficient
  0,                                      !- Temperature Term Coefficient
  0,                                      !- Velocity Term Coefficient
  0;                                      !- Velocity Squared Term Coefficient

DesignSpecification:OutdoorAir,
  READING-OA,                             !- Name
  Sum,                                    !- Outdoor Air Method
  0.008,                                  !- Outdoor Air Flow per Person {m3/s-person}
  0.0003,                                 !- Outdoor Air Flow per Zone Floor Area {m3/s-m2}
  0,                                      !- Outdoor Air Flow per Zone {m3/s}
  0,                                      !- Outdoor Air Flow Air Changes per Hour {1/hr}
  ALWAYS-ON;                              !- Outdoor Air Schedule Name

Zone,
  STACKS-ZN,                              !- Name
  0,                                      !- Direction of Relative North {deg}
  0,                                      !- X Origin {m}
  0,                                      !- Y Origin {m}
  0,                                      !- Z Origin {m}
  1,                                      !- Type
  1,                                      !- Multiplier
  3.2,                                    !- Ceiling Height {m}
  autocalculate,                          !- Volume {m3}
  autocalculate;                          !- Floor Area {m2}

HVACTemplate:Zone:IdealLoadsAirSystem,
  STACKS-ZN,                              !- Zone Name
  ENGIWORLD-THERMOSTAT,                   !- Template Thermostat Name
  HVAC-AVAILABILITY,                      !- System Availability Schedule Name
  ,                                       !- Maximum Heating Supply Air Temperature {C}
  ,                                       !- Minimum Cooling Supply Air Temperature {C}
  ,                                       !- Maximum Heating Supply Air Humidity Ratio {kgWater/kgDryAir}
  ,                                       !- Minimum Cooling Supply Air Humidity Ratio {kgWater/kgDryAir}
  ,                                       !- Heating Limit
  ,                                       !- Maximum Heating Air Flow Rate {m3/s}
  ,                                       !- Maximum Sensible Heating Capacity {W}
  ,                                       !- Cooling Limit
  ,                                       !- Maximum Cooling Air Flow Rate {m3/s}
  ,                                       !- Maximum Total Cooling Capacity {W}
  ,                                       !- Heating Availability Schedule Name
  ,                                       !- Cooling Availability Schedule Name
  ,                                       !- Dehumidification Control Type
  ,                                       !- Cooling Sensible Heat Ratio {dimensionless}
  ,                                       !- Dehumidification Setpoint {percent}
  ,                                       !- Humidification Control Type
  ,                                       !- Humidification Setpoint {percent}
  ,                                       !- Outdoor Air Method
  ,                                       !- Outdoor Air Flow Rate per Person {m3/s}
  ,                                       !- Outdoor Air Flow Rate per Zone Floor Area {m3/s-m2}
  ,                                       !- Outdoor Air Flow Rate per Zone {m3/s}
  ,                                       !- Design Specification Outdoor Air Object Name
  ;                                       !- Demand Controlled Ventilation Type

BuildingSurface:Detailed,
  STACKS-FLOOR,                           !- Name
  Floor,                                  !- Surface Type
  FLOOR-CONSTRUCTION,                     !- Construction Name
  STACKS-ZN,                              !- Zone Name
  STACKS,                                 !- Space Name
  Ground,                                 !- Outside Boundary Condition
  ,                                       !- Outside Boundary Condition Object
  NoSun,                                  !- Sun Exposure
  NoWind,                                 !- Wind Exposure
  autocalculate,                          !- View Factor to Ground
  4,                                      !- Number of Vertices
  4.619, 0, 0,                            !- X,Y,Z Vertex 1 {m}
  9.237, 0, 0,                            !- X,Y,Z Vertex 2 {m}
  9.237, 8.661, 0,                        !- X,Y,Z Vertex 3 {m}
  4.619, 8.661, 0;                        !- X,Y,Z Vertex 4 {m}

BuildingSurface:Detailed,
  STACKS-ROOF,                            !- Name
  Roof,                                   !- Surface Type
  ROOF-CONSTRUCTION,                      !- Construction Name
  STACKS-ZN,                              !- Zone Name
  STACKS,                                 !- Space Name
  Outdoors,                               !- Outside Boundary Condition
  ,                                       !- Outside Boundary Condition Object
  SunExposed,                             !- Sun Exposure
  WindExposed,                            !- Wind Exposure
  autocalculate,                          !- View Factor to Ground
  4,                                      !- Number of Vertices
  4.619, 8.661, 3.2,                      !- X,Y,Z Vertex 1 {m}
  9.237, 8.661, 3.2,                      !- X,Y,Z Vertex 2 {m}
  9.237, 0, 3.2,                          !- X,Y,Z Vertex 3 {m}
  4.619, 0, 3.2;                          !- X,Y,Z Vertex 4 {m}

BuildingSurface:Detailed,
  STACKS-SOUTH-WALL,                      !- Name
  Wall,                                   !- Surface Type
  WALL-CONSTRUCTION,                      !- Construction Name
  STACKS-ZN,                              !- Zone Name
  STACKS,                                 !- Space Name
  Outdoors,                               !- Outside Boundary Condition
  ,                                       !- Outside Boundary Condition Object
  SunExposed,                             !- Sun Exposure
  WindExposed,                            !- Wind Exposure
  autocalculate,                          !- View Factor to Ground
  4,                                      !- Number of Vertices
  4.619, 0, 3.2,                          !- X,Y,Z Vertex 1 {m}
  9.237, 0, 3.2,                          !- X,Y,Z Vertex 2 {m}
  9.237, 0, 0,                            !- X,Y,Z Vertex 3 {m}
  4.619, 0, 0;                            !- X,Y,Z Vertex 4 {m}

BuildingSurface:Detailed,
  STACKS-NORTH-WALL,                      !- Name
  Wall,                                   !- Surface Type
  WALL-CONSTRUCTION,                      !- Construction Name
  STACKS-ZN,                              !- Zone Name
  STACKS,                                 !- Space Name
  Outdoors,                               !- Outside Boundary Condition
  ,                                       !- Outside Boundary Condition Object
  SunExposed,                             !- Sun Exposure
  WindExposed,                            !- Wind Exposure
  autocalculate,                          !- View Factor to Ground
  4,                                      !- Number of Vertices
  9.237, 8.661, 3.2,                      !- X,Y,Z Vertex 1 {m}
  4.619, 8.661, 3.2,                      !- X,Y,Z Vertex 2 {m}
  4.619, 8.661, 0,                        !- X,Y,Z Vertex 3 {m}
  9.237, 8.661, 0;                        !- X,Y,Z Vertex 4 {m}

BuildingSurface:Detailed,
  STACKS-WEST-WALL,                       !- Name
  Wall,                                   !- Surface Type
  WALL-CONSTRUCTION,                      !- Construction Name
  STACKS-ZN,                              !- Zone Name
  STACKS,                                 !- Space Name
  Outdoors,                               !- Outside Boundary Condition
  ,                                       !- Outside Boundary Condition Object
  SunExposed,                             !- Sun Exposure
  WindExposed,                            !- Wind Exposure
  autocalculate,                          !- View Factor to Ground
  4,                                      !- Number of Vertices
  4.619, 8.661, 3.2,                      !- X,Y,Z Vertex 1 {m}
  4.619, 0, 3.2,                          !- X,Y,Z Vertex 2 {m}
  4.619, 0, 0,                            !- X,Y,Z Vertex 3 {m}
  4.619, 8.661, 0;                        !- X,Y,Z Vertex 4 {m}

BuildingSurface:Detailed,
  STACKS-EAST-WALL,                       !- Name
  Wall,                                   !- Surface Type
  WALL-CONSTRUCTION,                      !- Construction Name
  STACKS-ZN,                              !- Zone Name
  STACKS,                                 !- Space Name
  Outdoors,                               !- Outside Boundary Condition
  ,                                       !- Outside Boundary Condition Object
  SunExposed,                             !- Sun Exposure
  WindExposed,                            !- Wind Exposure
  autocalculate,                          !- View Factor to Ground
  4,                                      !- Number of Vertices
  9.237, 0, 3.2,                          !- X,Y,Z Vertex 1 {m}
  9.237, 8.661, 3.2,                      !- X,Y,Z Vertex 2 {m}
  9.237, 8.661, 0,                        !- X,Y,Z Vertex 3 {m}
  9.237, 0, 0;                            !- X,Y,Z Vertex 4 {m}

FenestrationSurface:Detailed,
  STACKS-SOUTH-WINDOW,                    !- Name
  Window,                                 !- Surface Type
  WINDOW-CONSTRUCTION,                    !- Construction Name
  STACKS-SOUTH-WALL,                      !- Building Surface Name
  ,                                       !- Outside Boundary Condition Object
  autocalculate,                          !- View Factor to Ground
  ,                                       !- Frame and Divider Name
  1.0,                                    !- Multiplier
  4,                                      !- Number of Vertices
  5.019, 0, 2.51671031953903,             !- X,Y,Z Vertex 1 {m}
  8.837, 0, 2.51671031953903,             !- X,Y,Z Vertex 2 {m}
  8.837, 0, 0.683289680460974,            !- X,Y,Z Vertex 3 {m}
  5.019, 0, 0.683289680460974;            !- X,Y,Z Vertex 4 {m}

Shading:Building:Detailed,
  STACKS-OVERHANG,                        !- Name
  ,                                       !- Transmittance Schedule Name
  4,                                      !- Number of Vertices
  5.019, -0.220010476689366, 2.63671031953903, !- X,Y,Z Vertex 1 {m}
  8.837, -0.220010476689366, 2.63671031953903, !- X,Y,Z Vertex 2 {m}
  8.837, 0, 2.63671031953903,             !- X,Y,Z Vertex 3 {m}
  5.019, 0, 2.63671031953903;             !- X,Y,Z Vertex 4 {m}

People,
  STACKS-PEOPLE,                          !- Name
  STACKS,                                 !- Zone or ZoneList or Space or SpaceList Name
  STACKS-LOAD-SCHEDULE,                   !- Number of People Schedule Name
  People/Area,                            !- Number of People Calculation Method
  ,                                       !- Number of People
  0.04,                                   !- People per Floor Area {person/m2}
  ,                                       !- Floor Area per Person {m2/person}
  0.3,                                    !- Fraction Radiant
  autocalculate,                          !- Sensible Heat Fraction
  ACTIVITY-SCHEDULE;                      !- Activity Level Schedule Name

Lights,
  STACKS-LIGHTS,                          !- Name
  STACKS,                                 !- Zone or ZoneList or Space or SpaceList Name
  STACKS-LOAD-SCHEDULE,                   !- Schedule Name
  Watts/Area,                             !- Design Level Calculation Method
  ,                                       !- Lighting Level {W}
  9.2,                                    !- Watts per Floor Area {W/m2}
  ,                                       !- Watts per Person {W/person}
  0,                                      !- Return Air Fraction
  0.42,                                   !- Fraction Radiant
  0.18,                                   !- Fraction Visible
  1,                                      !- Fraction Replaceable
  General;                                !- End-Use Subcategory

ElectricEquipment,
  STACKS-EQUIPMENT,                       !- Name
  STACKS,                                 !- Zone or ZoneList or Space or SpaceList Name
  STACKS-LOAD-SCHEDULE,                   !- Schedule Name
  Watts/Area,                             !- Design Level Calculation Method
  ,                                       !- Design Level {W}
  6.2,                                    !- Watts per Floor Area {W/m2}
  ,                                       !- Watts per Person {W/person}
  0,                                      !- Fraction Latent
  0.3,                                    !- Fraction Radiant
  0.2,                                    !- Fraction Lost
  General;                                !- End-Use Subcategory

ZoneInfiltration:DesignFlowRate,
  STACKS-INFILTRATION,                    !- Name
  STACKS,                                 !- Zone or ZoneList or Space or SpaceList Name
  ALWAYS-ON,                              !- Schedule Name
  AirChanges/Hour,                        !- Design Flow Rate Calculation Method
  ,                                       !- Design Flow Rate {m3/s}
  ,                                       !- Flow Rate per Floor Area {m3/s-m2}
  ,                                       !- Flow Rate per Exterior Surface Area {m3/s-m2}
  0.5,                                    !- Air Changes per Hour {1/hr}
  1,                                      !- Constant Term Coefficient
  0,                                      !- Temperature Term Coefficient
  0,                                      !- Velocity Term Coefficient
  0;                                      !- Velocity Squared Term Coefficient

DesignSpecification:OutdoorAir,
  STACKS-OA,                              !- Name
  Sum,                                    !- Outdoor Air Method
  0.008,                                  !- Outdoor Air Flow per Person {m3/s-person}
  0.0003,                                 !- Outdoor Air Flow per Zone Floor Area {m3/s-m2}
  0,                                      !- Outdoor Air Flow per Zone {m3/s}
  0,                                      !- Outdoor Air Flow Air Changes per Hour {1/hr}
  ALWAYS-ON;                              !- Outdoor Air Schedule Name

Zone,
  SERVICE-ZN,                             !- Name
  0,                                      !- Direction of Relative North {deg}
  0,                                      !- X Origin {m}
  0,                                      !- Y Origin {m}
  0,                                      !- Z Origin {m}
  1,                                      !- Type
  1,                                      !- Multiplier
  3.2,                                    !- Ceiling Height {m}
  autocalculate,                          !- Volume {m3}
  autocalculate;                          !- Floor Area {m2}

HVACTemplate:Zone:IdealLoadsAirSystem,
  SERVICE-ZN,                             !- Zone Name
  ENGIWORLD-THERMOSTAT,                   !- Template Thermostat Name
  HVAC-AVAILABILITY,                      !- System Availability Schedule Name
  ,                                       !- Maximum Heating Supply Air Temperature {C}
  ,                                       !- Minimum Cooling Supply Air Temperature {C}
  ,                                       !- Maximum Heating Supply Air Humidity Ratio {kgWater/kgDryAir}
  ,                                       !- Minimum Cooling Supply Air Humidity Ratio {kgWater/kgDryAir}
  ,                                       !- Heating Limit
  ,                                       !- Maximum Heating Air Flow Rate {m3/s}
  ,                                       !- Maximum Sensible Heating Capacity {W}
  ,                                       !- Cooling Limit
  ,                                       !- Maximum Cooling Air Flow Rate {m3/s}
  ,                                       !- Maximum Total Cooling Capacity {W}
  ,                                       !- Heating Availability Schedule Name
  ,                                       !- Cooling Availability Schedule Name
  ,                                       !- Dehumidification Control Type
  ,                                       !- Cooling Sensible Heat Ratio {dimensionless}
  ,                                       !- Dehumidification Setpoint {percent}
  ,                                       !- Humidification Control Type
  ,                                       !- Humidification Setpoint {percent}
  ,                                       !- Outdoor Air Method
  ,                                       !- Outdoor Air Flow Rate per Person {m3/s}
  ,                                       !- Outdoor Air Flow Rate per Zone Floor Area {m3/s-m2}
  ,                                       !- Outdoor Air Flow Rate per Zone {m3/s}
  ,                                       !- Design Specification Outdoor Air Object Name
  ;                                       !- Demand Controlled Ventilation Type

BuildingSurface:Detailed,
  SERVICE-FLOOR,                          !- Name
  Floor,                                  !- Surface Type
  FLOOR-CONSTRUCTION,                     !- Construction Name
  SERVICE-ZN,                             !- Zone Name
  SERVICE,                                !- Space Name
  Ground,                                 !- Outside Boundary Condition
  ,                                       !- Outside Boundary Condition Object
  NoSun,                                  !- Sun Exposure
  NoWind,                                 !- Wind Exposure
  autocalculate,                          !- View Factor to Ground
  4,                                      !- Number of Vertices
  9.237, 0, 0,                            !- X,Y,Z Vertex 1 {m}
  13.856, 0, 0,                           !- X,Y,Z Vertex 2 {m}
  13.856, 8.661, 0,                       !- X,Y,Z Vertex 3 {m}
  9.237, 8.661, 0;                        !- X,Y,Z Vertex 4 {m}

BuildingSurface:Detailed,
  SERVICE-ROOF,                           !- Name
  Roof,                                   !- Surface Type
  ROOF-CONSTRUCTION,                      !- Construction Name
  SERVICE-ZN,                             !- Zone Name
  SERVICE,                                !- Space Name
  Outdoors,                               !- Outside Boundary Condition
  ,                                       !- Outside Boundary Condition Object
  SunExposed,                             !- Sun Exposure
  WindExposed,                            !- Wind Exposure
  autocalculate,                          !- View Factor to Ground
  4,                                      !- Number of Vertices
  9.237, 8.661, 3.2,                      !- X,Y,Z Vertex 1 {m}
  13.856, 8.661, 3.2,                     !- X,Y,Z Vertex 2 {m}
  13.856, 0, 3.2,                         !- X,Y,Z Vertex 3 {m}
  9.237, 0, 3.2;                          !- X,Y,Z Vertex 4 {m}

BuildingSurface:Detailed,
  SERVICE-SOUTH-WALL,                     !- Name
  Wall,                                   !- Surface Type
  WALL-CONSTRUCTION,                      !- Construction Name
  SERVICE-ZN,                             !- Zone Name
  SERVICE,                                !- Space Name
  Outdoors,                               !- Outside Boundary Condition
  ,                                       !- Outside Boundary Condition Object
  SunExposed,                             !- Sun Exposure
  WindExposed,                            !- Wind Exposure
  autocalculate,                          !- View Factor to Ground
  4,                                      !- Number of Vertices
  9.237, 0, 3.2,                          !- X,Y,Z Vertex 1 {m}
  13.856, 0, 3.2,                         !- X,Y,Z Vertex 2 {m}
  13.856, 0, 0,                           !- X,Y,Z Vertex 3 {m}
  9.237, 0, 0;                            !- X,Y,Z Vertex 4 {m}

BuildingSurface:Detailed,
  SERVICE-NORTH-WALL,                     !- Name
  Wall,                                   !- Surface Type
  WALL-CONSTRUCTION,                      !- Construction Name
  SERVICE-ZN,                             !- Zone Name
  SERVICE,                                !- Space Name
  Outdoors,                               !- Outside Boundary Condition
  ,                                       !- Outside Boundary Condition Object
  SunExposed,                             !- Sun Exposure
  WindExposed,                            !- Wind Exposure
  autocalculate,                          !- View Factor to Ground
  4,                                      !- Number of Vertices
  13.856, 8.661, 3.2,                     !- X,Y,Z Vertex 1 {m}
  9.237, 8.661, 3.2,                      !- X,Y,Z Vertex 2 {m}
  9.237, 8.661, 0,                        !- X,Y,Z Vertex 3 {m}
  13.856, 8.661, 0;                       !- X,Y,Z Vertex 4 {m}

BuildingSurface:Detailed,
  SERVICE-WEST-WALL,                      !- Name
  Wall,                                   !- Surface Type
  WALL-CONSTRUCTION,                      !- Construction Name
  SERVICE-ZN,                             !- Zone Name
  SERVICE,                                !- Space Name
  Outdoors,                               !- Outside Boundary Condition
  ,                                       !- Outside Boundary Condition Object
  SunExposed,                             !- Sun Exposure
  WindExposed,                            !- Wind Exposure
  autocalculate,                          !- View Factor to Ground
  4,                                      !- Number of Vertices
  9.237, 8.661, 3.2,                      !- X,Y,Z Vertex 1 {m}
  9.237, 0, 3.2,                          !- X,Y,Z Vertex 2 {m}
  9.237, 0, 0,                            !- X,Y,Z Vertex 3 {m}
  9.237, 8.661, 0;                        !- X,Y,Z Vertex 4 {m}

BuildingSurface:Detailed,
  SERVICE-EAST-WALL,                      !- Name
  Wall,                                   !- Surface Type
  WALL-CONSTRUCTION,                      !- Construction Name
  SERVICE-ZN,                             !- Zone Name
  SERVICE,                                !- Space Name
  Outdoors,                               !- Outside Boundary Condition
  ,                                       !- Outside Boundary Condition Object
  SunExposed,                             !- Sun Exposure
  WindExposed,                            !- Wind Exposure
  autocalculate,                          !- View Factor to Ground
  4,                                      !- Number of Vertices
  13.856, 0, 3.2,                         !- X,Y,Z Vertex 1 {m}
  13.856, 8.661, 3.2,                     !- X,Y,Z Vertex 2 {m}
  13.856, 8.661, 0,                       !- X,Y,Z Vertex 3 {m}
  13.856, 0, 0;                           !- X,Y,Z Vertex 4 {m}

FenestrationSurface:Detailed,
  SERVICE-SOUTH-WINDOW,                   !- Name
  Window,                                 !- Surface Type
  WINDOW-CONSTRUCTION,                    !- Construction Name
  SERVICE-SOUTH-WALL,                     !- Building Surface Name
  ,                                       !- Outside Boundary Condition Object
  autocalculate,                          !- View Factor to Ground
  ,                                       !- Frame and Divider Name
  1.0,                                    !- Multiplier
  4,                                      !- Number of Vertices
  9.637, 0, 2.51647028017806,             !- X,Y,Z Vertex 1 {m}
  13.456, 0, 2.51647028017806,            !- X,Y,Z Vertex 2 {m}
  13.456, 0, 0.683529719821943,           !- X,Y,Z Vertex 3 {m}
  9.637, 0, 0.683529719821943;            !- X,Y,Z Vertex 4 {m}

Shading:Building:Detailed,
  SERVICE-OVERHANG,                       !- Name
  ,                                       !- Transmittance Schedule Name
  4,                                      !- Number of Vertices
  9.637, -0.219952867242734, 2.63647028017806, !- X,Y,Z Vertex 1 {m}
  13.456, -0.219952867242734, 2.63647028017806, !- X,Y,Z Vertex 2 {m}
  13.456, 0, 2.63647028017806,            !- X,Y,Z Vertex 3 {m}
  9.637, 0, 2.63647028017806;             !- X,Y,Z Vertex 4 {m}

People,
  SERVICE-PEOPLE,                         !- Name
  SERVICE,                                !- Zone or ZoneList or Space or SpaceList Name
  SERVICE-LOAD-SCHEDULE,                  !- Number of People Schedule Name
  People/Area,                            !- Number of People Calculation Method
  ,                                       !- Number of People
  0.04,                                   !- People per Floor Area {person/m2}
  ,                                       !- Floor Area per Person {m2/person}
  0.3,                                    !- Fraction Radiant
  autocalculate,                          !- Sensible Heat Fraction
  ACTIVITY-SCHEDULE;                      !- Activity Level Schedule Name

Lights,
  SERVICE-LIGHTS,                         !- Name
  SERVICE,                                !- Zone or ZoneList or Space or SpaceList Name
  SERVICE-LOAD-SCHEDULE,                  !- Schedule Name
  Watts/Area,                             !- Design Level Calculation Method
  ,                                       !- Lighting Level {W}
  9.2,                                    !- Watts per Floor Area {W/m2}
  ,                                       !- Watts per Person {W/person}
  0,                                      !- Return Air Fraction
  0.42,                                   !- Fraction Radiant
  0.18,                                   !- Fraction Visible
  1,                                      !- Fraction Replaceable
  General;                                !- End-Use Subcategory

ElectricEquipment,
  SERVICE-EQUIPMENT,                      !- Name
  SERVICE,                                !- Zone or ZoneList or Space or SpaceList Name
  SERVICE-LOAD-SCHEDULE,                  !- Schedule Name
  Watts/Area,                             !- Design Level Calculation Method
  ,                                       !- Design Level {W}
  6.2,                                    !- Watts per Floor Area {W/m2}
  ,                                       !- Watts per Person {W/person}
  0,                                      !- Fraction Latent
  0.3,                                    !- Fraction Radiant
  0.2,                                    !- Fraction Lost
  General;                                !- End-Use Subcategory

ZoneInfiltration:DesignFlowRate,
  SERVICE-INFILTRATION,                   !- Name
  SERVICE,                                !- Zone or ZoneList or Space or SpaceList Name
  ALWAYS-ON,                              !- Schedule Name
  AirChanges/Hour,                        !- Design Flow Rate Calculation Method
  ,                                       !- Design Flow Rate {m3/s}
  ,                                       !- Flow Rate per Floor Area {m3/s-m2}
  ,                                       !- Flow Rate per Exterior Surface Area {m3/s-m2}
  0.5,                                    !- Air Changes per Hour {1/hr}
  1,                                      !- Constant Term Coefficient
  0,                                      !- Temperature Term Coefficient
  0,                                      !- Velocity Term Coefficient
  0;                                      !- Velocity Squared Term Coefficient

DesignSpecification:OutdoorAir,
  SERVICE-OA,                             !- Name
  Sum,                                    !- Outdoor Air Method
  0.008,                                  !- Outdoor Air Flow per Person {m3/s-person}
  0.0003,                                 !- Outdoor Air Flow per Zone Floor Area {m3/s-m2}
  0,                                      !- Outdoor Air Flow per Zone {m3/s}
  0,                                      !- Outdoor Air Flow Air Changes per Hour {1/hr}
  ALWAYS-ON;                              !- Outdoor Air Schedule Name

ScheduleTypeLimits,
  Any Number,                             !- Name
  ,                                       !- Lower Limit Value {BasedOnField A3}
  ,                                       !- Upper Limit Value {BasedOnField A3}
  ;                                       !- Numeric Type

Schedule:Compact,
  OCCUPANCY-SCHEDULE,                     !- Name
  Fraction,                               !- Schedule Type Limits Name
  Through: 12/31,                         !- Field 1
  For: AllDays,                           !- Field 2
  Until: 05:46,                           !- Field 3
  0.0,                                    !- Field 4
  Until: 18:14,                           !- Field 5
  1.0,                                    !- Field 6
  Until: 24:00,                           !- Field 7
  0.0;                                    !- Field 8

Schedule:Compact,
  STACKS-LOAD-SCHEDULE,                   !- Name
  Fraction,                               !- Schedule Type Limits Name
  Through: 12/31,                         !- Field 1
  For: AllDays,                           !- Field 2
  Until: 05:46,                           !- Field 3
  0.0,                                    !- Field 4
  Until: 18:14,                           !- Field 5
  0.62,                                   !- Field 6
  Until: 24:00,                           !- Field 7
  0.0;                                    !- Field 8

Schedule:Compact,
  SERVICE-LOAD-SCHEDULE,                  !- Name
  Fraction,                               !- Schedule Type Limits Name
  Through: 12/31,                         !- Field 1
  For: AllDays,                           !- Field 2
  Until: 05:46,                           !- Field 3
  0.0,                                    !- Field 4
  Until: 18:14,                           !- Field 5
  0.48,                                   !- Field 6
  Until: 24:00,                           !- Field 7
  0.0;                                    !- Field 8

Schedule:Compact,
  HVAC-AVAILABILITY,                      !- Name
  Fraction,                               !- Schedule Type Limits Name
  Through: 12/31,                         !- Field 1
  For: AllDays,                           !- Field 2
  Until: 01:41,                           !- Field 3
  0.0,                                    !- Field 4
  Until: 22:19,                           !- Field 5
  1.0,                                    !- Field 6
  Until: 24:00,                           !- Field 7
  0.0;                                    !- Field 8

Schedule:Compact,
  HEATING-SP,                             !- Name
  Temperature,                            !- Schedule Type Limits Name
  Through: 12/31,                         !- Field 1
  For: AllDays,                           !- Field 2
  Until: 05:46,                           !- Field 3
  16.0,                                   !- Field 4
  Until: 18:14,                           !- Field 5
  21.0,                                   !- Field 6
  Until: 24:00,                           !- Field 7
  16.0;                                   !- Field 8

Schedule:Compact,
  COOLING-SP,                             !- Name
  Temperature,                            !- Schedule Type Limits Name
  Through: 12/31,                         !- Field 1
  For: AllDays,                           !- Field 2
  Until: 05:46,                           !- Field 3
  30.0,                                   !- Field 4
  Until: 18:14,                           !- Field 5
  23.5,                                   !- Field 6
  Until: 24:00,                           !- Field 7
  30.0;                                   !- Field 8

Schedule:Compact,
  ACTIVITY-SCHEDULE,                      !- Name
  Any Number,                             !- Schedule Type Limits Name
  Through: 12/31,                         !- Field 1
  For: AllDays,                           !- Field 2
  Until: 24:00,                           !- Field 3
  120.0;                                  !- Field 4

Space,
  READING,                                !- Name
  READING-ZN,                             !- Zone Name
  ,                                       !- Ceiling Height {m}
  ,                                       !- Volume {m3}
  ;                                       !- Floor Area {m2}

Space,
  STACKS,                                 !- Name
  STACKS-ZN,                              !- Zone Name
  ,                                       !- Ceiling Height {m}
  ,                                       !- Volume {m3}
  ;                                       !- Floor Area {m2}

Space,
  SERVICE,                                !- Name
  SERVICE-ZN,                             !- Zone Name
  ,                                       !- Ceiling Height {m}
  ,                                       !- Volume {m3}
  ;                                       !- Floor Area {m2}

FenestrationSurface:Detailed,
  READING-NORTH-WINDOW,                   !- Name
  Window,                                 !- Surface Type
  WINDOW-CONSTRUCTION,                    !- Construction Name
  READING-NORTH-WALL,                     !- Building Surface Name
  ,                                       !- Outside Boundary Condition Object
  autocalculate,                          !- View Factor to Ground
  ,                                       !- Frame and Divider Name
  1.0,                                    !- Multiplier
  4,                                      !- Number of Vertices
  4.219, 8.661, 2.51647028017806,         !- X,Y,Z Vertex 1 {m}
  0.4, 8.661, 2.51647028017806,           !- X,Y,Z Vertex 2 {m}
  0.4, 8.661, 0.683529719821943,          !- X,Y,Z Vertex 3 {m}
  4.219, 8.661, 0.683529719821943;        !- X,Y,Z Vertex 4 {m}

FenestrationSurface:Detailed,
  STACKS-NORTH-WINDOW,                    !- Name
  Window,                                 !- Surface Type
  WINDOW-CONSTRUCTION,                    !- Construction Name
  STACKS-NORTH-WALL,                      !- Building Surface Name
  ,                                       !- Outside Boundary Condition Object
  autocalculate,                          !- View Factor to Ground
  ,                                       !- Frame and Divider Name
  1.0,                                    !- Multiplier
  4,                                      !- Number of Vertices
  8.837, 8.661, 2.51671031953903,         !- X,Y,Z Vertex 1 {m}
  5.019, 8.661, 2.51671031953903,         !- X,Y,Z Vertex 2 {m}
  5.019, 8.661, 0.683289680460974,        !- X,Y,Z Vertex 3 {m}
  8.837, 8.661, 0.683289680460974;        !- X,Y,Z Vertex 4 {m}

FenestrationSurface:Detailed,
  SERVICE-NORTH-WINDOW,                   !- Name
  Window,                                 !- Surface Type
  WINDOW-CONSTRUCTION,                    !- Construction Name
  SERVICE-NORTH-WALL,                     !- Building Surface Name
  ,                                       !- Outside Boundary Condition Object
  autocalculate,                          !- View Factor to Ground
  ,                                       !- Frame and Divider Name
  1.0,                                    !- Multiplier
  4,                                      !- Number of Vertices
  13.456, 8.661, 2.51647028017806,        !- X,Y,Z Vertex 1 {m}
  9.637, 8.661, 2.51647028017806,         !- X,Y,Z Vertex 2 {m}
  9.637, 8.661, 0.683529719821943,        !- X,Y,Z Vertex 3 {m}
  13.456, 8.661, 0.683529719821943;       !- X,Y,Z Vertex 4 {m}

Daylighting:ReferencePoint,
  READING-DAYLIGHT-REF,                   !- Name
  READING,                                !- Zone or Space Name
  2.31,                                   !- X-Coordinate of Reference Point {m}
  4.33,                                   !- Y-Coordinate of Reference Point {m}
  0.8;                                    !- Z-Coordinate of Reference Point {m}

Daylighting:Controls,
  READING-DAYLIGHT-CONTROLS,              !- Name
  READING,                                !- Zone or Space Name
  SplitFlux,                              !- Daylighting Method
  OCCUPANCY-SCHEDULE,                     !- Availability Schedule Name
  Continuous,                             !- Lighting Control Type
  0.3,                                    !- Minimum Input Power Fraction for Continuous or ContinuousOff Dimming Control
  0.2,                                    !- Minimum Light Output Fraction for Continuous or ContinuousOff Dimming Control
  1,                                      !- Number of Stepped Control Steps
  1.0,                                    !- Probability Lighting will be Reset When Needed in Manual Stepped Control
  READING-DAYLIGHT-REF,                   !- Glare Calculation Daylighting Reference Point Name
  180,                                    !- Glare Calculation Azimuth Angle of View Direction Clockwise from Zone y-Axis {deg}
  22,                                     !- Maximum Allowable Discomfort Glare Index
  ,                                       !- DElight Gridding Resolution {m2}
  READING-DAYLIGHT-REF,                   !- Daylighting Reference Point Name 1
  0.18,                                   !- Fraction of Lights Controlled by Reference Point 1
  500;                                    !- Illuminance Setpoint at Reference Point 1 {lux}

Daylighting:ReferencePoint,
  STACKS-DAYLIGHT-REF,                    !- Name
  STACKS,                                 !- Zone or Space Name
  6.93,                                   !- X-Coordinate of Reference Point {m}
  4.33,                                   !- Y-Coordinate of Reference Point {m}
  0.8;                                    !- Z-Coordinate of Reference Point {m}

Daylighting:Controls,
  STACKS-DAYLIGHT-CONTROLS,               !- Name
  STACKS,                                 !- Zone or Space Name
  SplitFlux,                              !- Daylighting Method
  OCCUPANCY-SCHEDULE,                     !- Availability Schedule Name
  Continuous,                             !- Lighting Control Type
  0.3,                                    !- Minimum Input Power Fraction for Continuous or ContinuousOff Dimming Control
  0.2,                                    !- Minimum Light Output Fraction for Continuous or ContinuousOff Dimming Control
  1,                                      !- Number of Stepped Control Steps
  1.0,                                    !- Probability Lighting will be Reset When Needed in Manual Stepped Control
  STACKS-DAYLIGHT-REF,                    !- Glare Calculation Daylighting Reference Point Name
  180,                                    !- Glare Calculation Azimuth Angle of View Direction Clockwise from Zone y-Axis {deg}
  22,                                     !- Maximum Allowable Discomfort Glare Index
  ,                                       !- DElight Gridding Resolution {m2}
  STACKS-DAYLIGHT-REF,                    !- Daylighting Reference Point Name 1
  0.18,                                   !- Fraction of Lights Controlled by Reference Point 1
  500;                                    !- Illuminance Setpoint at Reference Point 1 {lux}

Daylighting:ReferencePoint,
  SERVICE-DAYLIGHT-REF,                   !- Name
  SERVICE,                                !- Zone or Space Name
  11.55,                                  !- X-Coordinate of Reference Point {m}
  4.33,                                   !- Y-Coordinate of Reference Point {m}
  0.8;                                    !- Z-Coordinate of Reference Point {m}

Daylighting:Controls,
  SERVICE-DAYLIGHT-CONTROLS,              !- Name
  SERVICE,                                !- Zone or Space Name
  SplitFlux,                              !- Daylighting Method
  OCCUPANCY-SCHEDULE,                     !- Availability Schedule Name
  Continuous,                             !- Lighting Control Type
  0.3,                                    !- Minimum Input Power Fraction for Continuous or ContinuousOff Dimming Control
  0.2,                                    !- Minimum Light Output Fraction for Continuous or ContinuousOff Dimming Control
  1,                                      !- Number of Stepped Control Steps
  1.0,                                    !- Probability Lighting will be Reset When Needed in Manual Stepped Control
  SERVICE-DAYLIGHT-REF,                   !- Glare Calculation Daylighting Reference Point Name
  180,                                    !- Glare Calculation Azimuth Angle of View Direction Clockwise from Zone y-Axis {deg}
  22,                                     !- Maximum Allowable Discomfort Glare Index
  ,                                       !- DElight Gridding Resolution {m2}
  SERVICE-DAYLIGHT-REF,                   !- Daylighting Reference Point Name 1
  0.18,                                   !- Fraction of Lights Controlled by Reference Point 1
  500;                                    !- Illuminance Setpoint at Reference Point 1 {lux}

Output:Variable,
  *,                                      !- Key Value
  Zone Heating Setpoint Not Met Time,     !- Variable Name
  RunPeriod;                              !- Reporting Frequency

Output:Variable,
  *,                                      !- Key Value
  Zone Cooling Setpoint Not Met Time,     !- Variable Name
  RunPeriod;                              !- Reporting Frequency

Output:Variable,
  *,                                      !- Key Value
  Zone Ideal Loads Zone Total Heating Rate, !- Variable Name
  Hourly;                                 !- Reporting Frequency

Output:Variable,
  *,                                      !- Key Value
  Zone Ideal Loads Zone Total Cooling Rate, !- Variable Name
  Hourly;                                 !- Reporting Frequency

